HFSDDW
15	12	4
0	19	1	91	2	95	3	47
0	67	1	71	2	42	3	89
0	89	1	11	2	35	3	50
0	51	1	4	2	24	3	26
0	55	1	61	2	52	3	37
0	51	1	13	2	34	3	35
0	29	1	19	2	66	3	15
0	74	1	57	2	63	3	76
0	36	1	23	2	62	3	97
0	36	1	57	2	30	3	49
0	27	1	96	2	21	3	47
0	35	1	64	2	76	3	14
0	31	1	64	2	54	3	21
0	62	1	31	2	56	3	7
0	57	1	61	2	18	3	49
LBCmax: 333
RELDUE
-1	48	5	9
-1	122	8	9
-1	81	6	4
-1	140	5	8
-1	190	1	1
-1	227	4	2
-1	79	1	7
-1	127	5	4
-1	170	7	4
-1	119	8	5
-1	330	9	8
-1	358	9	1
-1	138	7	5
-1	41	5	7
-1	69	1	7
DDW
45	51
111	133
76	86
136	144
188	192
222	232
73	85
118	136
160	180
118	120
310	350
340	376
137	139
40	42
68	70
